
Gurobi 11.0.2 (win64) logging started Wed Aug 14 20:06:36 2024

Set parameter LogFile to value "D:\Documenti\Scuola\Laurea magistrale unibs\laurea-unibs-mkfsp\output\2024-08-14T16_44_40.946359\logs\instance09_bucket7.log"
Set parameter TimeLimit to value 500
Set parameter MIPGap to value 0
Gurobi Optimizer version 11.0.2 build v11.0.2rc0 (win64 - Windows 10.0 (19045.2))

CPU model: Intel(R) Core(TM) i5-4670 CPU @ 3.40GHz, instruction set [SSE2|AVX|AVX2]
Thread count: 4 physical cores, 4 logical processors, using up to 4 threads

Optimize a model with 6445 rows, 33030 columns and 928598 nonzeros
Model fingerprint: 0x45da68d3
Variable types: 0 continuous, 33030 integer (32775 binary)
Coefficient statistics:
  Matrix range     [1e+00, 9e+03]
  Objective range  [6e+02, 9e+03]
  Bounds range     [1e+00, 1e+00]
  RHS range        [1e+00, 1e+06]
Found heuristic solution: objective 1315370.0000
Presolve time: 2.00s
Presolved: 6445 rows, 33030 columns, 928598 nonzeros
Variable types: 0 continuous, 33030 integer (32775 binary)
Found heuristic solution: objective 1340062.0000
Deterministic concurrent LP optimizer: primal simplex, dual simplex, and barrier
Showing barrier log only...

Root barrier log...

Ordering time: 0.08s

Barrier statistics:
 AA' NZ     : 9.930e+05
 Factor NZ  : 1.123e+06 (roughly 20 MB of memory)
 Factor Ops : 5.157e+08 (less than 1 second per iteration)
 Threads    : 2

Barrier performed 0 iterations in 2.78 seconds (2.36 work units)
Barrier solve interrupted - model solved by another algorithm

Concurrent spin time: 0.16s (can be avoided by choosing Method=3)

Solved with dual simplex

Root relaxation: objective 1.478216e+06, 1979 iterations, 0.70 seconds (0.49 work units)

    Nodes    |    Current Node    |     Objective Bounds      |     Work
 Expl Unexpl |  Obj  Depth IntInf | Incumbent    BestBd   Gap | It/Node Time

H    0     0                    1478216.0000 1478216.00  0.00%     -    2s
     0     0 1478216.00    0 1520 1478216.00 1478216.00  0.00%     -    2s

Explored 1 nodes (1979 simplex iterations) in 2.88 seconds (2.40 work units)
Thread count was 4 (of 4 available processors)

Solution count 3: 1.47822e+06 1.34006e+06 1.31537e+06 

Optimal solution found (tolerance 0.00e+00)
Best objective 1.478216000000e+06, best bound 1.478216000000e+06, gap 0.0000%
